CMD:
./solvers/bin/cadical --plain --no-reduce -t 1600 ./data/cnfs//dspfilters_fastfir_second-p25/dspfilters_fastfir_second-p25.32.cnf

c --- [ banner ] -------------------------------------------------------------
c 
c CaDiCaL SAT Solver
c Copyright (c) 2016-2024
c A. Biere, M. Fleury, N. Froleyks, K. Fazekas, F. Pollitt, T. Faller
c JKU Linz, University of Freiburg, TU Wien
c 
c Version 2.1.3 5296d3d2a9bf48c154ab2acb5e44625776d821bf
c g++ (Gentoo 12.3.1_p20230526 p2) 12.3.1 20230526 -Wall -Wextra -O3 -DNDEBUG
c Sat Aug 9 07:26:21 PDT 2025 Linux cedar2.int.cedar.computecanada.ca 5.14.0-362.24.2.el9_3.x86_64 x86_64
c 
c --- [ limit ] --------------------------------------------------------------
c 
c setting time limit to 1600 seconds real time (due to '-t 1600')
c 
c --- [ parsing input ] ------------------------------------------------------
c 
c reading DIMACS file from './data/cnfs//dspfilters_fastfir_second-p25/dspfilters_fastfir_second-p25.32.cnf'
c opening file to read './data/cnfs//dspfilters_fastfir_second-p25/dspfilters_fastfir_second-p25.32.cnf'
c found 'p cnf 968417 2827149' header
c parsed 2827149 clauses in 0.56 seconds process time
c 
c --- [ options ] ------------------------------------------------------------
c 
c   --compact=false                (different from default 'true')
c   --decompose=false              (different from default 'true')
c   --deduplicate=false            (different from default 'true')
c   --elim=false                   (different from default 'true')
c   --probe=false                  (different from default 'true')
c   --reduce=false                 (different from default 'true')
c   --subsume=false                (different from default 'true')
c   --ternary=false                (different from default 'true')
c   --transred=false               (different from default 'true')
c   --vivify=false                 (different from default 'true')
c 
c --- [ solving ] ------------------------------------------------------------
c 
c time measured in process time since initialization
c 
c  seconds   reductions  redundant   irredundant
c          MB    restarts       trail        variables
c           level   conflicts       glue           remaining
c 
c *  0.56 427  0 0   0    0    0  0% 0 2698508 872099 90%
c {  0.89 440  0 0   0    0    0  0% 0 2698508 872099 90%
c i  0.90 441 246 0   0   27   12 12% 3 2698508 872094 90%
c i  0.98 441 417 0   2   98   77 16% 3 2698508 872092 90%
c i  1.14 441 189 0  34  232  200 15% 4 2698508 871090 90%
c i  1.54 442 206 0  50  453  363 17% 5 2698508 870794 90%
c }  2.08 442 97 0 126 1000  815 17% 5 2698508 870794 90%
c [  2.08 442  0 0 126 1000  815  0% 0 2698508 870794 90%
c O  2.28 442 8272 0 126 1017  826 55% 4 2698508 870794 90%
c i  2.85 443 11879 0 126 1164  924 73% 20 2698508 870738 90%
c i  3.38 443 13842 0 126 1584 1265 81% 27 2698508 870289 90%
c i  6.84 444 7449 0 127 2973 2436 58% 24 2698508 870162 90%
c ]  6.87 444 7337 0 127 3000 2450 58% 24 2698508 870162 90%
c {  6.87 444 97 0 127 3000 2450 17% 5 2698508 870162 90%
c F  6.89 444 95 0 127 3020 2465 17% 5 2698508 870162 90%
c i  8.06 444 66 0 204 3728 3067 18% 6 2698508 852170 88%
c i  8.83 444 56 0 252 4241 3520 19% 6 2698508 852114 88%
c i  8.83 444 56 0 252 4242 3520 19% 6 2698508 852058 88%
c i  8.83 444 56 0 252 4243 3520 19% 6 2698508 852002 88%
c # 11.74 445 51 0 566 6022 4894 21% 7 2698508 852002 88%
c 
c  seconds   reductions  redundant   irredundant
c          MB    restarts       trail        variables
c           level   conflicts       glue           remaining
c 
c i 13.05 445 47 0 674 6780 5493 21% 7 2698508 851891 88%
c i 13.13 445 46 0 674 6840 5542 21% 7 2698508 851834 88%
c i 13.13 445 46 0 674 6841 5542 21% 7 2698508 851778 88%
c } 13.38 445 45 0 681 7000 5673 21% 7 2698508 851778 88%
c [ 13.38 445 7337 0 681 7000 5673 58% 24 2698508 851778 88%
c i 14.49 445 5359 0 682 7681 6164 49% 20 2698508 851754 88%
c I 16.73 446 2742 0 683 10024 7747 38% 14 2698508 851727 88%
c i 18.08 446 1907 0 685 12075 9072 34% 12 2698508 850758 88%
c i 18.42 446 1836 0 685 12335 9304 34% 12 2698508 850589 88%
c i 20.50 446 1514 0 686 13808 10161 32% 11 2698508 849358 88%
c ] 21.50 447 1324 0 686 15002 11209 32% 11 2698508 849358 88%
c { 21.50 447 45 0 686 15002 11209 21% 7 2698508 849358 88%
c B 21.58 447 45 0 691 15026 11231 21% 7 2698508 846647 87%
c i 22.39 447 42 0 769 15679 11659 21% 7 2698508 846637 87%
c i 22.59 447 40 0 787 16033 11859 22% 7 2698508 845181 87%
c i 23.01 447 38 0 790 16424 12084 22% 7 2698508 843125 87%
c i 23.25 447 36 0 790 16752 12251 22% 7 2698508 841306 87%
c i 23.89 447 35 0 809 17098 12454 22% 6 2698508 840438 87%
c i 24.00 447 35 0 810 17265 12551 22% 6 2698508 830676 86%
c i 24.00 447 35 0 810 17266 12551 22% 6 2698508 830659 86%
c 
c  seconds   reductions    redundant   irredundant
c          MB    restarts         trail        variables
c           level    conflicts        glue           remaining
c 
c } 24.24 447 34 0 811 17548 12739 22% 6 2698508 807283 83%
c 0 24.24 447 34 0 811 17548 12739 22% 6 2698508 807283 83%
c 
c --- [ result ] -------------------------------------------------------------
c 
s UNSATISFIABLE
c 
c --- [ run-time profiling ] -------------------------------------------------
c 
c process time taken by individual solving procedures
c (percentage relative to process time for solving)
c 
c        23.68  100.00% search
c        12.91   54.50% stable
c        10.45   44.11% unstable
c         0.56    2.35% parse
c         0.33    1.38% lucky
c         0.00    0.00% simplify
c   =================================
c        23.68   97.70% solve
c 
c last line shows process time for solving
c (percentage relative to total process time)
c 
c --- [ statistics ] ---------------------------------------------------------
c 
c chronological:              7082        40.36 %  of conflicts
c conflicts:                 17548       740.91    per second
c decisions:                 98482      4158.08    per second
c fixed:                    159328        16.45 %  of all variables
c learned:                   16775        95.59 %  per conflict
c learned_lits:            1071013       100.00 %  learned literals
c minimized:                     0         0.00 %  learned literals
c shrunken:                 458795        42.84 %  learned literals
c minishrunken:             171338        16.00 %  learned literals
c otfs:                         79         0.45 %  of conflict
c propagations:          220748021         9.32 M  per second
c rephased:                      5      3509.60    interval
c restarts:                    811        21.64    interval
c stabilizing:                   2        56.99 %  of conflicts
c subsumed:                   4011         0.15 %  of all clauses
c strengthened:                 78         0.00 %  of all clauses
c 
c seconds are measured in process time for solving
c 
c --- [ resources ] ----------------------------------------------------------
c 
c total process time since initialization:        24.24    seconds
c total real time since initialization:           24.35    seconds
c maximum resident set size of process:          444.66    MB
c 
c --- [ shutting down ] ------------------------------------------------------
c 
c exit 20
